50469
51,126,594,605,606,644,749,757,804,817,831,884,949,975,1187,1374,1382,1453,1466,1526,1583,1627,1636,1661,1768,1852,1996,2067,2385,2501,2661,2720,2857,2915,2994,3005,3018,3185,3241,3266,3491,3599,3681,3884,3924,3955,4269,4291,4449,4456,4558,4585,4983,5062,5136,5346,5349,5487,5518,5550,6091,6096,6181,6189,6277,6286,6358,6451,6515,6846,7012,7361,7370,7385,7473,7552,7641,7684,7687,8020,8058,8173,8298,8419,8622,8658,8697,8744,8925,8930,9197,9285,9302,9603,9616,9693,9709,9719,9788,9858
